s td 216 17 270
b 1 19 113 157 166 210
b 2 31 32 187 192
b 3 2 33 147 263 266
b 4 3 26 31 46 134
b 5 24 48 120 209 248
b 6 20 52 124 189 241
b 7 12 55 179 208
b 8 56 58 186 264
b 9 39 62 226 268
b 10 16 42 67 73
b 11 31 72 121 206
b 12 12 21 74 75
b 13 73 77 88 100
b 14 80 169 173 193
b 15 12 81 92 149 178
b 16 73 97 173 246
b 17 98 114 174 235 264
b 18 101 103 126 173 195
b 19 23 73 102 136 229
b 20 34 49 104 188 252
b 21 7 38 105 189 262
b 22 31 137 211 219
b 23 85 144 205
b 24 27 84 145 193
b 25 78 111 150 214 260
b 26 70 139 151 152 256
b 27 95 159 249 261
b 28 115 161 175 192 234
b 29 22 60 167
b 30 45 89 185 189
b 31 6 17 191 196 264
b 32 95 218 261
b 33 130 193 228 239 253
b 34 59 156 193 232
b 35 39 254 268
b 36 12 40 192 259
b 37 95 261
b 38 39 268
b 39 8 54 125 146
b 40 18 26 31 206
b 41 26 31 121 206
b 42 3 26 31 206
b 43 3 26 31 211
b 44 26 31 51 211
b 45 26 31 211 219
b 46 16 23 42 73
b 47 16 23 73 265
b 48 16 23 73 136
b 49 59 130 156 193
b 50 130 156 193 198
b 51 130 156 193 253
b 52 12 21 75 178
b 53 12 21 117 178
b 54 12 21 149 178
b 55 27 84 130 193
b 56 27 93 130 193
b 57 27 130 193 253
b 58 130 193 253
b 59 23 73 88 100
b 60 23 73 100 110
b 61 23 73 100 136
b 62 23 73 136
b 63 12 94 178 208
b 64 12 149 178 208
b 65 12 178 179 208
b 66 12 178 208
b 67 190 202 220 242
b 68 5 29 90 194 199 221
b 69 29 68 89 90 99 113 151 189 192 194 199 205 216 221 234 240
b 70 29 68 89 90 99 113 139 151 189 192 194 199 205 216 234 240
b 71 29 68 70 89 90 99 139 151 189 192 194 199 205 216 234
b 72 68 70 89 90 99 139 151 189 192 194 199 216 234 256
b 73 31 68 89 90 99 155 189 192 194 199 216 234 256
b 74 31 38 68 89 90 99 155 189 192 194 199 216 234
b 75 31 38 68 89 90 99 155 189 194 199 216 267
b 76 7 31 38 68 89 90 155 189 194 199 267 269
b 77 7 31 155 233 269
b 78 7 26 31 155 233
b 79 7 68 90 194 199 200 267 269
b 80 7 90 123 199 200 267 269
b 81 7 68 90 180 200 267 269
b 82 31 99 155 216 237 267
b 83 31 38 155 192 197 234
b 84 31 155 187 192 234
b 85 31 99 155 216 255 256
b 86 29 70 85 90 194 205
b 87 29 89 90 99 113 139 175 189 192 194 205 216 234 240
b 88 29 90 95 99 113 139 175 192 194 205 216 234
b 89 29 90 95 99 112 131 153 194 205 216
b 90 29 95 99 112 131 153 205 216 244
b 91 9 29 112 131 205 244
b 92 9 29 131 205 236 244
b 93 25 29 90 112 131 153 194 205 216
b 94 95 113 139 175 192 213 234
b 95 29 89 90 99 113 154 166 184 189 192 194 205 216 221 224 234 240
b 96 89 90 99 113 154 166 184 189 192 194 216 221 224 234 247
b 97 89 90 99 113 154 166 184 189 192 194 210 216 224 234 247
b 98 12 89 90 99 184 189 192 194 210 216 224 234 247 257
b 99 12 89 90 99 124 184 189 192 194 216 224 234 247 257
b 100 12 41 89 90 99 124 184 189 194 216 224 247 257
b 101 12 20 41 54 89 90 124 184 189 194 224 247 257
b 102 15 20 41 54 90 184 194
b 103 20 54 57 89 124 189 224
b 104 12 20 54 178 257
b 105 20 41 54 90 194 225 247
b 106 20 54 89 124 189 241
b 107 12 37 41 99 216 257
b 108 12 124 192 234 251 257
b 109 12 40 192 234 257
b 110 12 99 148 210 216 257
b 111 113 154 157 166 210 247
b 112 29 89 90 99 154 166 184 188 189 192 194 205 216 224 234 240
b 113 29 49 89 90 154 166 184 188 189 192 194 205 224 234 240
b 114 29 34 49 89 154 166 184 188 189 192 205 224 234 240
b 115 29 34 89 154 166 184 189 192 205 215 222 224 234 240
b 116 29 34 45 89 189 192 205 215 222 224 234 240
b 117 29 34 45 89 189 192 205 222 234 240 270
b 118 29 63 154 184 205 215 222
b 119 29 135 166 184 205 215 222
b 120 47 66 177 204
b 121 5 29 69 90 194
b 122 12 20 83 125 178
b 123 4 7 26 31 106
b 124 4 7 26 31 233
b 125 107 162 212 244
b 126 70 85 119 205
b 127 58 132 172 186 264
b 128 22 60 111 140
b 129 12 54 125 146 178
b 130 12 20 54 125 178
b 131 45 89 160 189 270
b 132 126 169 173 193 258
b 133 22 44 61 109 126 138 173 186 193 195 238 258 264 266
b 134 22 44 58 61 109 126 138 172 173 186 195 238 264 266
b 135 11 22 44 58 61 109 126 138 143 172 173 186 238 247 263 264 266
b 136 11 22 58 61 143 172 186 238 247 263 264 266
b 137 11 22 58 61 143 172 221 247 263
b 138 11 22 58 61 143 172 221 245 247 263
b 139 11 22 61 91 143 172 221 245 263
b 140 22 35 91 172 221 263
b 141 22 44 58 61 109 126 138 172 173 186 238 248 264
b 142 44 109 126 138 173 186 209 238 248 264
b 143 24 44 109 186 209 248 264
b 144 11 44 73 87 109 126 138 143 173 186 190 238 247 263 264 266
b 145 73 87 126 173 246
b 146 11 17 44 73 87 109 126 138 143 173 186 190 238 247 263 264 266
b 147 17 23 73 87 190
b 148 17 23 73 190 220
b 149 17 73 87 126 173 186 190 196 247 264
b 150 73 87 108 126 173 196
b 151 6 17 186 190 196 264
b 152 17 181 186 190 196 247 264
b 153 11 17 44 73 87 109 138 143 190 238 250 263 266
b 154 73 87 138 143 147 238 250 263 266
b 155 73 87 138 147 163 238
b 156 2 143 147 250 263 266
b 157 11 17 44 73 76 87 109 138 190 238 250
b 158 73 76 87 138 141 238
b 159 17 30 44 76 109 190 250
b 160 11 17 44 76 86 109 190
b 161 28 58 126 172 173 186 195 264
b 162 28 103 126 173 186 195 264
b 163 22 44 61 109 114 126 138 168 173 186 193 195 238 258 264 266
b 164 114 168 193 231 258
b 165 114 130 193 231 258
b 166 114 126 168 173 186 193 235 258 264
b 167 126 127 173 193 235 258
b 168 22 44 61 109 114 138 168 193 195 214 238 258 266
b 169 44 53 61 109 114 138 168 193 214 238 258
b 170 53 79 138 193 238 258
b 171 1 44 53 61 109 114 168 171 214
b 172 1 44 53 82 109 114 168 171
b 173 1 53 82 109 114 158 168
b 174 36 53 82 109 114 168 171
b 175 1 44 61 109 118 171 214
b 176 1 50 118 171 214
b 177 22 44 61 109 138 193 195 214 238 258 260 266
b 178 138 142 193 238 258 260
b 179 22 39 44 61 109 138 195 214 238 260 266
b 180 22 39 44 61 109 138 204 230 238
b 181 22 44 61 71 109 138 182 204 230 238
b 182 22 44 61 71 109 128 138 182 230
b 183 22 39 44 61 109 111 195 214 260 266
b 184 22 44 60 61 109 111
b 185 39 78 111 195 214 260 266
b 186 114 130 164 170 193
b 187 114 130 164 193 231
b 188 44 61 109 118 176
b 189 17 23 73 203 220
b 190 9 29 112 131 217
b 191 23 73 190 220 242
b 192 61 71 182 183 243
b 193 13 96 126 173 186 264
b 194 14 44 71 109 138 238
b 195 39 65 78 195 266
b 196 115 175 192 213 234
b 197 90 99 116 131 194 216
b 198 89 129 189 192 207 234
b 199 22 43 66 177 204
b 200 22 43 177 183 204
b 201 22 43 177 183 201
b 202 22 43 61 71 183 204
b 203 22 61 71 182 183 204
b 204 28 58 64 96 126 172 173 186 264
b 205 28 58 96 126 172 173 186 264
b 206 7 10 38 122 189 269
b 207 7 10 38 189 262 269
b 208 7 10 38 89 189 269
b 209 114 133 168 223 235 264
b 210 114 168 174 223 235 264
b 211 114 168 186 223 235 264
b 212 162 205 212 236 244
b 213 9 205 212 236 244
b 214 9 205 212 227 236
b 215 45 89 165 189 192 207 234 240 270
b 216 45 89 189 192 207 234 240 270
1 111
2 84
3 156
4 43
5 143
6 106
7 65
8 134
9 38
10 46
11 41
12 52
13 59
14 132
15 64
16 145
17 210
18 162
19 62
20 114
21 207
22 45
23 86
24 55
25 185
26 72
27 37
28 196
29 184
30 116
31 151
32 37
33 58
34 49
35 38
36 109
37 88
38 179
39 129
40 42
41 42
42 43
43 45
44 45
45 78
46 48
47 48
48 62
49 51
50 51
51 58
52 54
53 54
54 64
55 57
56 57
57 58
58 165
59 61
60 61
61 62
62 147
63 66
64 66
65 66
66 104
67 191
68 121
68 69
69 70
69 95
70 71
70 87
71 72
71 86
72 73
73 74
73 84
73 85
74 75
74 83
75 76
75 82
76 208
76 77
76 79
77 78
78 124
79 80
79 81
86 126
87 88
88 89
88 94
89 197
89 90
89 93
90 91
91 190
91 92
92 213
94 196
95 96
95 112
96 137
96 97
97 98
97 111
98 99
98 109
98 110
99 100
99 108
100 101
100 107
101 102
101 103
101 104
101 105
101 106
104 130
112 113
113 114
114 115
115 116
115 118
115 119
116 117
117 131
117 216
120 199
122 130
123 124
125 212
127 134
128 184
129 130
132 133
133 163
133 134
134 161
134 135
135 141
135 144
135 136
136 137
137 138
138 139
139 140
141 142
142 143
144 145
144 146
146 147
146 149
146 153
147 148
148 189
148 191
149 150
149 151
149 152
153 154
153 157
154 155
154 156
157 158
157 159
157 160
161 205
161 162
163 164
163 166
163 168
164 165
165 187
166 211
166 167
168 169
168 177
169 170
169 171
171 172
171 175
172 173
172 174
175 188
175 176
177 178
177 179
179 180
179 183
180 181
181 194
181 203
181 182
183 184
183 185
185 195
186 187
192 203
193 205
198 216
199 200
200 202
200 201
202 203
204 205
206 208
207 208
209 211
210 211
212 213
213 214
215 216
